100
3477
10
15
35
97
50
31
22
58
9
65
23
0 1
0 2
0 3
0 4
0 5
0 6
0 8
0 9
0 10
0 12
0 13
0 14
0 15
0 16
0 17
0 18
0 19
0 20
0 21
0 24
0 27
0 28
0 29
0 30
0 32
0 33
0 35
0 36
0 37
0 39
0 40
0 41
0 42
0 44
0 46
0 47
0 48
0 50
0 51
0 52
0 54
0 55
0 57
0 60
0 61
0 62
0 63
0 64
0 65
0 66
0 68
0 69
0 70
0 71
0 74
0 76
0 78
0 79
0 80
0 84
0 85
0 86
0 88
0 89
0 90
0 91
0 94
0 96
0 97
0 98
0 99
1 3
1 4
1 5
1 7
1 8
1 9
1 11
1 13
1 14
1 15
1 16
1 17
1 19
1 20
1 23
1 24
1 25
1 26
1 27
1 28
1 29
1 31
1 33
1 36
1 39
1 40
1 41
1 42
1 44
1 45
1 47
1 48
1 51
1 53
1 54
1 55
1 57
1 58
1 60
1 61
1 62
1 63
1 64
1 66
1 68
1 69
1 70
1 71
1 76
1 77
1 79
1 80
1 81
1 83
1 84
1 85
1 87
1 88
1 90
1 91
1 92
1 93
1 96
1 97
1 98
2 3
2 4
2 5
2 6
2 10
2 11
2 13
2 14
2 16
2 17
2 18
2 19
2 23
2 26
2 28
2 29
2 31
2 33
2 34
2 36
2 37
2 38
2 40
2 41
2 42
2 43
2 44
2 45
2 46
2 48
2 49
2 50
2 51
2 53
2 54
2 55
2 56
2 57
2 60
2 61
2 63
2 64
2 67
2 68
2 69
2 70
2 71
2 72
2 74
2 75
2 76
2 78
2 79
2 80
2 81
2 82
2 83
2 86
2 87
2 88
2 89
2 90
2 92
2 93
2 94
2 95
2 96
2 97
2 98
2 99
3 4
3 5
3 6
3 8
3 9
3 10
3 11
3 13
3 15
3 17
3 19
3 20
3 21
3 22
3 23
3 24
3 27
3 28
3 29
3 32
3 34
3 35
3 36
3 37
3 38
3 40
3 41
3 42
3 44
3 45
3 46
3 47
3 48
3 49
3 50
3 51
3 52
3 53
3 54
3 55
3 57
3 58
3 59
3 60
3 63
3 64
3 65
3 67
3 70
3 71
3 72
3 73
3 74
3 75
3 79
3 80
3 81
3 82
3 83
3 85
3 86
3 87
3 89
3 92
3 93
3 94
3 97
3 99
4 5
4 9
4 13
4 14
4 15
4 18
4 19
4 21
4 23
4 25
4 26
4 27
4 28
4 29
4 30
4 31
4 34
4 35
4 37
4 38
4 39
4 40
4 42
4 44
4 45
4 47
4 49
4 53
4 55
4 57
4 58
4 59
4 60
4 61
4 62
4 63
4 64
4 65
4 67
4 68
4 69
4 71
4 74
4 76
4 77
4 79
4 80
4 81
4 83
4 84
4 85
4 87
4 88
4 89
4 91
4 92
4 93
4 94
4 96
4 97
4 98
4 99
5 6
5 7
5 8
5 11
5 13
5 16
5 18
5 19
5 20
5 23
5 25
5 27
5 30
5 31
5 32
5 33
5 34
5 35
5 36
5 37
5 38
5 40
5 42
5 43
5 44
5 45
5 46
5 48
5 49
5 51
5 53
5 57
5 59
5 60
5 61
5 62
5 64
5 65
5 66
5 67
5 68
5 70
5 71
5 72
5 73
5 74
5 76
5 78
5 80
5 82
5 83
5 85
5 86
5 87
5 91
5 92
5 93
5 94
5 95
5 96
5 97
5 99
6 7
6 8
6 10
6 11
6 12
6 13
6 14
6 15
6 17
6 19
6 20
6 22
6 24
6 26
6 27
6 29
6 31
6 32
6 34
6 35
6 36
6 39
6 40
6 41
6 43
6 44
6 45
6 46
6 47
6 48
6 49
6 51
6 52
6 55
6 57
6 58
6 59
6 60
6 61
6 62
6 63
6 64
6 65
6 66
6 70
6 71
6 72
6 73
6 74
6 76
6 78
6 80
6 82
6 83
6 85
6 86
6 87
6 88
6 91
6 93
6 94
6 96
6 98
6 99
7 9
7 11
7 12
7 13
7 15
7 16
7 19
7 20
7 21
7 23
7 24
7 25
7 27
7 29
7 30
7 32
7 33
7 34
7 35
7 38
7 40
7 41
7 42
7 43
7 45
7 46
7 48
7 49
7 50
7 51
7 52
7 53
7 54
7 55
7 56
7 57
7 58
7 60
7 61
7 62
7 63
7 64
7 65
7 67
7 68
7 69
7 70
7 71
7 72
7 73
7 74
7 76
7 78
7 79
7 81
7 82
7 83
7 84
7 85
7 86
7 89
7 90
7 91
7 92
7 93
7 94
7 95
7 99
8 9
8 10
8 12
8 13
8 14
8 15
8 17
8 19
8 20
8 21
8 23
8 24
8 25
8 29
8 31
8 32
8 33
8 35
8 36
8 37
8 39
8 40
8 41
8 42
8 43
8 44
8 45
8 46
8 51
8 53
8 55
8 56
8 58
8 59
8 60
8 62
8 63
8 64
8 65
8 66
8 68
8 69
8 71
8 72
8 74
8 75
8 76
8 77
8 78
8 79
8 80
8 81
8 84
8 85
8 86
8 89
8 90
8 91
8 92
8 93
8 94
8 95
8 96
8 97
8 99
9 10
9 11
9 14
9 15
9 17
9 18
9 19
9 20
9 21
9 22
9 26
9 29
9 30
9 31
9 32
9 36
9 37
9 38
9 39
9 43
9 45
9 50
9 51
9 52
9 53
9 55
9 56
9 57
9 59
9 61
9 63
9 64
9 65
9 67
9 68
9 69
9 70
9 72
9 73
9 74
9 75
9 76
9 77
9 81
9 82
9 83
9 84
9 87
9 88
9 89
9 90
9 92
9 93
9 94
9 95
9 96
9 99
10 11
10 13
10 14
10 15
10 17
10 18
10 19
10 20
10 23
10 24
10 25
10 26
10 27
10 29
10 31
10 32
10 33
10 34
10 36
10 37
10 38
10 40
10 41
10 42
10 44
10 45
10 46
10 48
10 50
10 52
10 53
10 54
10 57
10 59
10 60
10 63
10 64
10 65
10 67
10 68
10 69
10 70
10 72
10 74
10 76
10 78
10 79
10 80
10 82
10 86
10 87
10 88
10 91
10 92
10 93
10 94
10 95
10 96
10 97
10 98
11 12
11 13
11 14
11 16
11 17
11 18
11 19
11 21
11 23
11 27
11 32
11 33
11 34
11 35
11 36
11 37
11 39
11 40
11 41
11 45
11 47
11 48
11 50
11 51
11 52
11 55
11 56
11 57
11 58
11 59
11 60
11 61
11 62
11 63
11 65
11 66
11 68
11 70
11 72
11 73
11 74
11 75
11 76
11 77
11 78
11 79
11 80
11 81
11 82
11 83
11 84
11 85
11 87
11 89
11 90
11 91
11 92
11 93
11 96
11 97
11 98
11 99
12 13
12 14
12 16
12 17
12 18
12 19
12 20
12 21
12 22
12 24
12 25
12 27
12 28
12 29
12 30
12 31
12 34
12 35
12 36
12 38
12 39
12 40
12 41
12 42
12 43
12 45
12 46
12 47
12 49
12 50
12 51
12 52
12 53
12 54
12 55
12 56
12 59
12 61
12 62
12 63
12 65
12 68
12 69
12 70
12 72
12 74
12 79
12 80
12 82
12 83
12 84
12 87
12 88
12 89
12 90
12 91
12 92
12 94
12 95
12 96
12 97
12 98
12 99
13 14
13 15
13 17
13 18
13 20
13 21
13 22
13 24
13 28
13 30
13 31
13 32
13 33
13 34
13 35
13 37
13 39
13 40
13 41
13 42
13 43
13 44
13 45
13 46
13 47
13 48
13 49
13 50
13 51
13 52
13 53
13 54
13 55
13 57
13 58
13 59
13 60
13 61
13 63
13 64
13 65
13 66
13 67
13 68
13 70
13 71
13 75
13 76
13 77
13 78
13 79
13 80
13 81
13 83
13 84
13 86
13 88
13 91
13 92
13 94
13 95
13 96
13 98
14 16
14 21
14 22
14 23
14 24
14 25
14 26
14 29
14 30
14 31
14 32
14 34
14 37
14 38
14 39
14 40
14 42
14 43
14 44
14 46
14 47
14 48
14 49
14 50
14 53
14 54
14 55
14 56
14 57
14 58
14 59
14 60
14 61
14 62
14 64
14 65
14 66
14 68
14 72
14 74
14 76
14 77
14 79
14 80
14 81
14 82
14 83
14 84
14 86
14 87
14 89
14 90
14 91
14 92
14 93
14 95
14 96
14 97
14 98
15 17
15 18
15 20
15 21
15 22
15 23
15 24
15 27
15 29
15 30
15 31
15 32
15 33
15 34
15 35
15 36
15 38
15 41
15 44
15 46
15 47
15 48
15 49
15 50
15 51
15 52
15 53
15 54
15 56
15 57
15 58
15 59
15 60
15 62
15 63
15 64
15 65
15 66
15 68
15 69
15 70
15 71
15 72
15 73
15 74
15 76
15 77
15 82
15 83
15 84
15 85
15 86
15 87
15 88
15 89
15 90
15 92
15 94
15 95
15 96
15 98
16 17
16 18
16 20
16 21
16 22
16 25
16 26
16 27
16 28
16 30
16 31
16 33
16 34
16 37
16 39
16 40
16 41
16 42
16 44
16 45
16 46
16 48
16 49
16 50
16 51
16 52
16 53
16 54
16 56
16 59
16 60
16 62
16 63
16 64
16 67
16 68
16 69
16 70
16 71
16 72
16 73
16 74
16 75
16 76
16 78
16 79
16 81
16 82
16 83
16 85
16 86
16 87
16 88
16 89
16 91
16 94
16 95
16 98
16 99
17 19
17 20
17 21
17 22
17 23
17 24
17 25
17 27
17 30
17 31
17 33
17 35
17 36
17 37
17 38
17 39
17 40
17 41
17 42
17 43
17 44
17 46
17 47
17 49
17 50
17 51
17 52
17 54
17 55
17 56
17 57
17 58
17 59
17 61
17 64
17 66
17 67
17 68
17 69
17 71
17 72
17 74
17 76
17 77
17 78
17 79
17 80
17 81
17 82
17 83
17 89
17 91
17 92
17 94
17 95
17 96
17 99
18 20
18 21
18 22
18 25
18 26
18 27
18 28
18 29
18 31
18 32
18 33
18 34
18 35
18 37
18 38
18 39
18 40
18 42
18 43
18 44
18 45
18 47
18 49
18 50
18 51
18 52
18 54
18 55
18 56
18 57
18 58
18 61
18 62
18 63
18 66
18 67
18 68
18 70
18 71
18 72
18 73
18 75
18 76
18 77
18 78
18 81
18 82
18 83
18 84
18 85
18 86
18 87
18 88
18 89
18 90
18 91
18 95
18 96
18 98
18 99
19 20
19 21
19 22
19 23
19 24
19 25
19 26
19 27
19 28
19 29
19 30
19 31
19 32
19 35
19 38
19 39
19 40
19 43
19 44
19 46
19 47
19 48
19 49
19 50
19 51
19 52
19 55
19 56
19 57
19 58
19 59
19 60
19 63
19 64
19 68
19 69
19 70
19 71
19 72
19 74
19 75
19 76
19 77
19 79
19 82
19 83
19 88
19 90
19 94
19 95
19 97
19 98
19 99
20 21
20 24
20 25
20 26
20 28
20 29
20 30
20 31
20 32
20 33
20 34
20 35
20 36
20 37
20 38
20 39
20 40
20 41
20 42
20 45
20 47
20 48
20 50
20 51
20 53
20 57
20 58
20 59
20 61
20 62
20 63
20 64
20 65
20 66
20 67
20 68
20 69
20 70
20 71
20 72
20 73
20 74
20 75
20 76
20 79
20 80
20 81
20 84
20 87
20 89
20 90
20 91
20 94
20 95
20 97
20 98
20 99
21 23
21 24
21 25
21 27
21 29
21 30
21 31
21 32
21 33
21 34
21 35
21 36
21 37
21 39
21 40
21 41
21 43
21 44
21 45
21 47
21 48
21 51
21 52
21 53
21 54
21 55
21 56
21 57
21 58
21 59
21 60
21 61
21 63
21 64
21 65
21 66
21 67
21 68
21 69
21 70
21 71
21 72
21 73
21 75
21 77
21 78
21 79
21 80
21 81
21 82
21 84
21 85
21 88
21 89
21 90
21 91
21 92
21 93
21 95
21 96
21 97
21 98
22 24
22 25
22 26
22 27
22 30
22 31
22 32
22 33
22 36
22 37
22 38
22 39
22 40
22 41
22 44
22 45
22 47
22 50
22 52
22 53
22 54
22 55
22 56
22 58
22 59
22 62
22 63
22 64
22 65
22 67
22 69
22 70
22 71
22 75
22 76
22 77
22 79
22 81
22 82
22 83
22 84
22 85
22 86
22 87
22 88
22 90
22 91
22 93
22 94
22 96
22 97
22 98
22 99
23 24
23 25
23 27
23 28
23 29
23 31
23 33
23 34
23 36
23 37
23 39
23 41
23 42
23 44
23 45
23 47
23 48
23 52
23 54
23 55
23 56
23 57
23 58
23 60
23 61
23 63
23 64
23 66
23 68
23 69
23 70
23 71
23 72
23 73
23 74
23 75
23 76
23 77
23 78
23 79
23 80
23 81
23 82
23 83
23 85
23 86
23 89
23 92
23 96
24 25
24 26
24 27
24 28
24 34
24 35
24 36
24 37
24 38
24 41
24 42
24 43
24 44
24 46
24 47
24 48
24 49
24 50
24 51
24 54
24 57
24 58
24 60
24 61
24 62
24 63
24 69
24 70
24 72
24 74
24 75
24 76
24 77
24 79
24 80
24 81
24 82
24 83
24 84
24 85
24 86
24 88
24 91
24 92
24 96
24 97
24 98
24 99
25 26
25 28
25 30
25 31
25 32
25 33
25 34
25 36
25 37
25 38
25 39
25 40
25 41
25 42
25 44
25 45
25 47
25 50
25 51
25 54
25 55
25 56
25 57
25 58
25 59
25 63
25 64
25 65
25 66
25 68
25 69
25 70
25 71
25 72
25 73
25 74
25 75
25 77
25 78
25 79
25 82
25 83
25 86
25 87
25 88
25 89
25 90
25 91
25 93
25 94
25 96
25 97
25 99
26 27
26 29
26 30
26 31
26 32
26 34
26 36
26 37
26 38
26 40
26 41
26 42
26 44
26 46
26 47
26 49
26 51
26 53
26 54
26 55
26 56
26 57
26 58
26 59
26 60
26 61
26 62
26 64
26 65
26 66
26 67
26 68
26 70
26 71
26 72
26 73
26 75
26 78
26 79
26 80
26 81
26 82
26 84
26 85
26 88
26 91
26 93
26 94
26 95
26 96
26 97
26 98
27 28
27 29
27 31
27 32
27 35
27 36
27 38
27 39
27 40
27 43
27 44
27 45
27 48
27 49
27 50
27 51
27 53
27 54
27 56
27 57
27 58
27 59
27 60
27 61
27 62
27 63
27 65
27 67
27 68
27 69
27 70
27 72
27 73
27 74
27 75
27 76
27 77
27 80
27 81
27 82
27 83
27 84
27 86
27 87
27 88
27 89
27 90
27 92
27 94
27 98
27 99
28 29
28 30
28 32
28 33
28 34
28 35
28 36
28 37
28 39
28 40
28 42
28 43
28 44
28 45
28 46
28 47
28 48
28 49
28 50
28 52
28 56
28 59
28 61
28 62
28 63
28 64
28 65
28 66
28 68
28 70
28 71
28 75
28 76
28 77
28 79
28 81
28 82
28 84
28 86
28 87
28 88
28 89
28 93
28 94
28 96
28 97
28 99
29 30
29 32
29 33
29 34
29 38
29 39
29 40
29 41
29 43
29 45
29 46
29 47
29 49
29 50
29 51
29 55
29 57
29 58
29 59
29 61
29 62
29 63
29 64
29 65
29 66
29 67
29 68
29 69
29 70
29 72
29 73
29 75
29 77
29 78
29 79
29 82
29 83
29 86
29 87
29 89
29 93
29 94
29 96
29 97
29 98
29 99
30 32
30 35
30 37
30 38
30 39
30 40
30 41
30 42
30 43
30 44
30 47
30 51
30 52
30 53
30 54
30 55
30 56
30 57
30 60
30 61
30 64
30 66
30 68
30 69
30 71
30 72
30 73
30 74
30 75
30 76
30 77
30 78
30 79
30 81
30 82
30 88
30 89
30 92
30 93
30 94
30 98
30 99
31 32
31 33
31 35
31 36
31 37
31 39
31 41
31 42
31 43
31 45
31 46
31 47
31 48
31 49
31 50
31 51
31 52
31 54
31 55
31 56
31 57
31 59
31 60
31 65
31 67
31 68
31 69
31 70
31 71
31 72
31 73
31 74
31 75
31 76
31 78
31 80
31 81
31 82
31 83
31 84
31 85
31 88
31 89
31 90
31 91
31 93
31 96
31 97
31 99
32 34
32 35
32 36
32 40
32 41
32 42
32 43
32 44
32 45
32 46
32 47
32 48
32 49
32 50
32 51
32 52
32 54
32 55
32 56
32 57
32 58
32 60
32 61
32 63
32 65
32 66
32 68
32 69
32 70
32 72
32 76
32 77
32 78
32 79
32 80
32 81
32 82
32 83
32 84
32 85
32 88
32 89
32 91
32 92
32 93
32 94
32 95
32 96
32 97
32 99
33 34
33 37
33 39
33 40
33 41
33 44
33 45
33 46
33 47
33 48
33 49
33 51
33 52
33 53
33 54
33 55
33 57
33 58
33 60
33 61
33 63
33 65
33 66
33 67
33 68
33 69
33 70
33 73
33 75
33 76
33 77
33 78
33 79
33 80
33 82
33 83
33 84
33 85
33 87
33 88
33 89
33 91
33 93
33 96
33 97
33 99
34 37
34 38
34 40
34 42
34 43
34 47
34 49
34 50
34 52
34 54
34 57
34 58
34 59
34 60
34 61
34 62
34 63
34 65
34 66
34 67
34 68
34 69
34 70
34 73
34 74
34 76
34 78
34 81
34 83
34 84
34 85
34 86
34 87
34 88
34 89
34 91
34 92
34 96
34 99
35 36
35 38
35 39
35 40
35 42
35 43
35 45
35 50
35 51
35 53
35 54
35 55
35 56
35 57
35 60
35 63
35 64
35 65
35 67
35 69
35 70
35 71
35 72
35 73
35 77
35 79
35 80
35 81
35 82
35 83
35 86
35 87
35 88
35 91
35 92
35 93
35 94
35 95
35 96
35 97
35 98
35 99
36 38
36 40
36 41
36 42
36 43
36 44
36 47
36 49
36 50
36 51
36 52
36 54
36 55
36 56
36 58
36 59
36 60
36 62
36 63
36 64
36 65
36 66
36 68
36 70
36 71
36 72
36 74
36 76
36 78
36 80
36 81
36 82
36 83
36 84
36 87
36 88
36 89
36 91
36 93
36 94
36 95
36 96
36 97
36 98
36 99
37 38
37 39
37 42
37 43
37 44
37 45
37 47
37 48
37 49
37 50
37 53
37 54
37 56
37 57
37 58
37 61
37 63
37 64
37 65
37 66
37 67
37 68
37 70
37 71
37 72
37 73
37 74
37 76
37 77
37 78
37 80
37 81
37 83
37 87
37 88
37 89
37 91
37 94
37 96
37 97
37 98
37 99
38 39
38 40
38 41
38 43
38 44
38 45
38 46
38 48
38 49
38 50
38 51
38 54
38 55
38 56
38 58
38 59
38 60
38 61
38 62
38 63
38 64
38 65
38 66
38 67
38 68
38 69
38 70
38 71
38 72
38 73
38 74
38 75
38 76
38 78
38 79
38 80
38 81
38 82
38 83
38 84
38 85
38 86
38 87
38 90
38 91
38 92
38 94
38 95
38 96
38 97
38 99
39 40
39 41
39 43
39 45
39 46
39 47
39 49
39 50
39 52
39 54
39 55
39 58
39 59
39 62
39 63
39 64
39 65
39 66
39 67
39 68
39 69
39 70
39 71
39 74
39 75
39 76
39 77
39 78
39 79
39 81
39 82
39 83
39 84
39 85
39 86
39 87
39 88
39 89
39 90
39 92
39 94
39 95
39 97
39 98
39 99
40 41
40 42
40 43
40 44
40 45
40 47
40 49
40 50
40 51
40 54
40 55
40 56
40 57
40 58
40 59
40 60
40 62
40 64
40 65
40 66
40 67
40 68
40 72
40 73
40 74
40 75
40 76
40 77
40 78
40 81
40 82
40 83
40 86
40 88
40 90
40 93
40 94
40 95
40 96
40 98
40 99
41 42
41 43
41 44
41 45
41 46
41 47
41 48
41 49
41 50
41 52
41 54
41 55
41 57
41 60
41 61
41 62
41 63
41 64
41 65
41 66
41 67
41 68
41 70
41 71
41 74
41 76
41 77
41 79
41 80
41 81
41 82
41 83
41 84
41 87
41 88
41 89
41 90
41 92
41 93
41 94
41 95
41 97
41 98
42 43
42 44
42 45
42 46
42 49
42 50
42 52
42 53
42 54
42 55
42 56
42 57
42 58
42 60
42 61
42 62
42 63
42 64
42 65
42 66
42 67
42 68
42 69
42 70
42 71
42 72
42 73
42 76
42 78
42 79
42 80
42 81
42 82
42 83
42 84
42 88
42 89
42 90
42 91
42 93
42 94
42 95
42 96
42 99
43 44
43 45
43 46
43 47
43 48
43 49
43 50
43 51
43 52
43 53
43 54
43 55
43 56
43 57
43 58
43 59
43 60
43 62
43 64
43 66
43 67
43 68
43 69
43 71
43 72
43 73
43 75
43 76
43 77
43 78
43 79
43 80
43 81
43 82
43 84
43 85
43 87
43 88
43 89
43 92
43 94
43 95
43 96
43 97
43 98
44 46
44 49
44 51
44 52
44 53
44 54
44 56
44 58
44 59
44 60
44 62
44 63
44 64
44 65
44 66
44 67
44 68
44 72
44 73
44 74
44 76
44 77
44 78
44 79
44 80
44 81
44 83
44 84
44 85
44 86
44 87
44 88
44 89
44 90
44 92
44 93
44 94
44 96
44 97
44 98
45 46
45 47
45 48
45 49
45 50
45 51
45 54
45 55
45 59
45 60
45 61
45 63
45 66
45 67
45 68
45 69
45 71
45 72
45 73
45 74
45 76
45 78
45 80
45 81
45 82
45 83
45 84
45 85
45 87
45 88
45 89
45 90
45 91
45 92
45 94
45 95
45 96
45 97
45 98
46 47
46 50
46 51
46 52
46 53
46 54
46 55
46 56
46 57
46 58
46 65
46 66
46 67
46 68
46 69
46 70
46 73
46 74
46 75
46 76
46 77
46 78
46 80
46 81
46 82
46 83
46 84
46 85
46 86
46 87
46 88
46 91
46 92
46 93
46 95
46 96
46 97
46 98
46 99
47 49
47 52
47 53
47 54
47 56
47 59
47 63
47 64
47 65
47 66
47 67
47 68
47 69
47 72
47 74
47 75
47 76
47 77
47 78
47 80
47 81
47 83
47 84
47 86
47 87
47 89
47 90
47 91
47 96
47 99
48 50
48 51
48 53
48 55
48 56
48 57
48 59
48 60
48 61
48 62
48 63
48 65
48 66
48 67
48 69
48 70
48 71
48 72
48 73
48 74
48 75
48 76
48 77
48 78
48 79
48 80
48 81
48 82
48 85
48 86
48 87
48 88
48 89
48 90
48 91
48 92
48 93
48 94
48 96
48 97
48 98
48 99
49 50
49 51
49 52
49 53
49 54
49 55
49 56
49 57
49 58
49 59
49 60
49 61
49 63
49 66
49 67
49 68
49 69
49 71
49 72
49 75
49 76
49 77
49 78
49 80
49 81
49 83
49 85
49 87
49 88
49 89
49 90
49 91
49 92
49 93
49 94
49 96
49 99
50 52
50 53
50 55
50 56
50 57
50 59
50 62
50 64
50 65
50 66
50 67
50 68
50 69
50 70
50 71
50 72
50 73
50 74
50 75
50 76
50 77
50 78
50 79
50 80
50 81
50 82
50 84
50 85
50 86
50 87
50 88
50 89
50 90
50 91
50 92
50 94
50 95
50 96
50 99
51 52
51 53
51 54
51 59
51 60
51 63
51 64
51 65
51 66
51 67
51 68
51 69
51 72
51 73
51 75
51 76
51 77
51 78
51 79
51 80
51 81
51 82
51 83
51 86
51 87
51 88
51 89
51 93
51 95
51 96
51 97
51 98
51 99
52 55
52 56
52 57
52 58
52 60
52 61
52 63
52 64
52 65
52 66
52 67
52 68
52 69
52 70
52 71
52 72
52 73
52 74
52 75
52 76
52 77
52 78
52 79
52 80
52 81
52 82
52 83
52 84
52 85
52 86
52 87
52 88
52 90
52 92
52 93
52 94
52 95
52 96
52 98
53 54
53 55
53 56
53 58
53 59
53 61
53 62
53 63
53 64
53 65
53 66
53 67
53 69
53 70
53 71
53 72
53 74
53 75
53 77
53 81
53 82
53 83
53 85
53 87
53 89
53 90
53 91
53 92
53 93
53 94
53 95
54 56
54 57
54 58
54 60
54 61
54 62
54 63
54 64
54 68
54 69
54 70
54 71
54 74
54 75
54 76
54 77
54 79
54 80
54 82
54 84
54 85
54 86
54 87
54 88
54 89
54 90
54 91
54 93
54 94
54 95
54 96
54 97
54 98
54 99
55 56
55 61
55 62
55 63
55 64
55 65
55 66
55 67
55 68
55 69
55 72
55 73
55 74
55 75
55 76
55 77
55 78
55 79
55 80
55 81
55 82
55 83
55 84
55 86
55 87
55 88
55 89
55 90
55 91
55 92
55 94
55 97
55 99
56 57
56 59
56 60
56 62
56 64
56 66
56 68
56 69
56 72
56 73
56 74
56 75
56 77
56 78
56 79
56 80
56 83
56 84
56 85
56 86
56 87
56 88
56 89
56 90
56 91
56 92
56 93
56 94
56 95
56 96
56 97
56 99
57 58
57 60
57 61
57 62
57 63
57 68
57 69
57 71
57 73
57 74
57 75
57 78
57 79
57 81
57 82
57 84
57 87
57 88
57 89
57 92
57 93
57 94
57 95
57 96
57 98
57 99
58 60
58 61
58 62
58 63
58 64
58 65
58 67
58 69
58 72
58 76
58 77
58 78
58 80
58 82
58 84
58 86
58 90
58 92
58 94
58 97
58 98
58 99
59 61
59 62
59 64
59 65
59 66
59 67
59 68
59 69
59 70
59 71
59 72
59 74
59 76
59 77
59 78
59 79
59 80
59 81
59 82
59 83
59 84
59 85
59 87
59 88
59 89
59 90
59 91
59 94
59 95
59 98
59 99
60 61
60 62
60 65
60 66
60 67
60 68
60 69
60 70
60 71
60 72
60 73
60 74
60 75
60 77
60 78
60 79
60 82
60 83
60 85
60 86
60 87
60 88
60 91
60 92
60 93
60 94
60 95
60 96
60 99
61 63
61 64
61 66
61 69
61 72
61 73
61 75
61 77
61 78
61 79
61 80
61 81
61 82
61 83
61 84
61 86
61 87
61 89
61 92
61 93
61 94
61 95
61 96
61 97
61 98
62 64
62 65
62 66
62 67
62 70
62 72
62 73
62 74
62 75
62 76
62 77
62 78
62 79
62 81
62 82
62 84
62 85
62 87
62 89
62 90
62 92
62 93
62 95
62 97
62 99
63 64
63 65
63 66
63 68
63 69
63 70
63 72
63 74
63 75
63 77
63 78
63 79
63 80
63 81
63 83
63 84
63 85
63 86
63 90
63 93
63 94
63 95
63 96
63 98
64 65
64 66
64 68
64 69
64 70
64 71
64 73
64 74
64 75
64 76
64 77
64 79
64 83
64 84
64 85
64 86
64 87
64 88
64 89
64 90
64 91
64 93
64 94
64 95
64 96
64 97
64 98
64 99
65 69
65 70
65 71
65 73
65 74
65 75
65 77
65 81
65 83
65 84
65 85
65 90
65 91
65 92
65 94
65 95
65 98
65 99
66 67
66 68
66 69
66 70
66 71
66 73
66 74
66 75
66 76
66 80
66 85
66 86
66 88
66 89
66 91
66 92
66 95
66 98
67 68
67 69
67 70
67 71
67 72
67 73
67 74
67 77
67 79
67 80
67 82
67 84
67 86
67 87
67 88
67 90
67 91
67 92
67 94
67 95
67 97
68 69
68 70
68 71
68 72
68 73
68 75
68 77
68 79
68 80
68 81
68 84
68 85
68 86
68 89
68 91
68 92
68 93
68 94
68 95
68 97
68 98
68 99
69 70
69 71
69 72
69 73
69 74
69 76
69 77
69 78
69 79
69 80
69 81
69 82
69 84
69 85
69 86
69 87
69 88
69 90
69 91
69 92
69 93
69 94
69 95
69 96
69 97
69 98
69 99
70 71
70 72
70 74
70 76
70 77
70 78
70 79
70 80
70 81
70 82
70 83
70 85
70 87
70 88
70 89
70 91
70 93
70 95
70 97
70 99
71 75
71 77
71 78
71 80
71 82
71 83
71 84
71 86
71 88
71 89
71 90
71 92
71 93
71 94
71 96
71 97
71 98
72 75
72 77
72 78
72 79
72 80
72 82
72 83
72 85
72 86
72 87
72 90
72 91
72 94
72 97
72 98
72 99
73 74
73 75
73 76
73 77
73 78
73 79
73 80
73 81
73 83
73 85
73 87
73 89
73 90
73 91
73 92
73 93
73 95
73 97
73 99
74 75
74 77
74 78
74 79
74 80
74 81
74 82
74 83
74 85
74 86
74 87
74 88
74 89
74 94
74 95
74 97
74 99
75 77
75 80
75 81
75 83
75 84
75 85
75 89
75 90
75 91
75 96
75 97
75 99
76 77
76 79
76 80
76 81
76 82
76 83
76 84
76 86
76 87
76 88
76 90
76 93
76 94
76 98
77 78
77 79
77 80
77 81
77 83
77 84
77 85
77 86
77 87
77 88
77 90
77 91
77 92
77 94
77 95
77 96
77 97
77 98
77 99
78 79
78 80
78 81
78 82
78 83
78 84
78 86
78 87
78 88
78 89
78 90
78 92
78 94
78 95
78 97
79 80
79 81
79 82
79 84
79 85
79 86
79 87
79 88
79 89
79 90
79 92
79 93
79 94
79 95
79 96
79 97
79 98
80 81
80 82
80 83
80 84
80 86
80 87
80 88
80 89
80 91
80 92
80 93
80 95
80 96
80 97
80 98
80 99
81 82
81 83
81 84
81 85
81 86
81 87
81 88
81 89
81 90
81 91
81 92
81 94
81 95
81 98
81 99
82 83
82 84
82 85
82 86
82 87
82 90
82 92
82 93
82 95
82 96
82 97
82 98
83 87
83 88
83 89
83 90
83 91
83 92
83 93
83 95
83 97
83 98
83 99
84 85
84 87
84 90
84 91
84 92
84 93
84 94
84 95
84 96
84 97
84 98
84 99
85 86
85 87
85 88
85 89
85 90
85 93
85 94
85 95
85 97
86 87
86 88
86 89
86 92
86 93
86 94
86 98
86 99
87 88
87 89
87 90
87 91
87 93
87 94
87 96
87 98
87 99
88 89
88 90
88 91
88 93
88 95
88 96
88 98
88 99
89 90
89 91
89 92
89 94
89 95
89 97
89 98
89 99
90 92
90 93
90 94
90 95
91 93
91 94
91 95
91 96
91 97
91 99
92 94
92 95
92 97
92 98
92 99
93 95
93 96
93 98
94 95
94 96
94 98
95 96
95 98
95 99
96 97
96 98
96 99
98 99
65 40 80 7 48 49 6 2 53 66
8 27 21 9 5 18 73 98 4 30
54 37 76 25 11 29 39 15 61 85
28 45 86 96 0 35 93 89 14 63
52 24 69 82 55 43 23 20 90 97
71 1 22 34 78 94 81 83 75 13
50 92 87 84 62 51 68 16 41 64
31 44 36 17 32 99 12 57 72 58
26 10 74 88 91 59 79 38 42 47
70 60 77 46 19 56 67 3 33 95
